projet_m2_wvcp/original_wvcp_dzn/mulsol.i.5.clq.dzn
cliques=[{7,48,65,69,152,13,12,6,3,60,62,106,0,15,49,50,52,53,11,10,14,1,5,8,64,51,66,2,9,4},{7,48,65,69,152,13,12,6,3,60,62,106,0,15,49,50,52,53,11,10,14,1,5,8,64,51,66,2,9,4},{7,48,65,69,152,13,12,6,3,60,62,106,0,15,49,50,52,53,11,10,14,1,5,8,64,51,66,2,9,4},{7,48,65,69,152,13,12,6,3,60,62,106,0,15,49,50,52,53,11,10,14,1,5,8,64,51,66,2,9,4},{7,48,65,69,152,13,12,6,3,60,62,106,0,15,49,50,52,53,11,10,14,1,5,8,64,51,66,2,9,4},{7,48,65,69,152,13,12,6,3,60,62,106,0,15,49,50,52,53,11,10,14,1,5,8,64,51,66,2,9,4},{7,48,65,69,152,13,12,6,3,60,62,106,0,15,49,50,52,53,11,10,14,1,5,8,64,51,66,2,9,4},{7,48,65,69,152,13,12,6,3,60,62,106,0,15,49,50,52,53,11,10,14,1,5,8,64,51,66,2,9,4},{7,48,65,69,152,13,12,6,3,60,62,106,0,15,49,50,52,53,11,10,14,1,5,8,64,51,66,2,9,4},{7,48,65,69,152,13,12,6,3,60,62,106,0,15,49,50,52,53,11,10,14,1,5,8,64,51,66,2,9,4},{7,48,65,69,152,13,12,6,3,60,62,106,0,15,49,50,52,53,11,10,14,1,5,8,64,51,66,2,9,4},{7,48,65,69,152,13,12,6,3,60,62,106,0,15,49,50,52,53,11,10,14,1,5,8,64,51,66,2,9,4},{7,48,65,69,152,13,12,6,3,60,62,106,0,15,49,50,52,53,11,10,14,1,5,8,64,51,66,2,9,4},{7,48,65,69,152,13,12,6,3,60,62,106,0,15,49,50,52,53,11,10,14,1,5,8,64,51,66,2,9,4},{7,48,65,69,152,13,12,6,3,60,62,106,0,15,49,50,52,53,11,10,14,1,5,8,64,51,66,2,9,4},{7,48,65,69,152,13,12,6,3,60,62,106,0,15,49,50,52,53,11,10,14,1,5,8,64,51,66,2,9,4},{94,25,30,33,95,23,31,92,136,85,19,70,18,88,26,59,16,21,20,24,27,84,89,91,128,17,28,22,29,82},{94,25,30,33,95,23,31,92,136,85,19,70,18,88,26,59,16,21,20,24,27,84,89,91,128,17,28,22,29,82},{94,25,30,33,95,23,31,92,136,85,19,70,18,88,26,59,16,21,20,24,27,84,89,91,128,17,28,22,29,82},{94,25,30,33,95,23,31,92,136,85,19,70,18,88,26,59,16,21,20,24,27,84,89,91,128,17,28,22,29,82},{94,25,30,33,95,23,31,92,136,85,19,70,18,88,26,59,16,21,20,24,27,84,89,91,128,17,28,22,29,82},{94,25,30,33,95,23,31,92,136,85,19,70,18,88,26,59,16,21,20,24,27,84,89,91,128,17,28,22,29,82},{94,25,30,33,95,23,31,92,136,85,19,70,18,88,26,59,16,21,20,24,27,84,89,91,128,17,28,22,29,82},{94,25,30,33,95,23,31,92,136,85,19,70,18,88,26,59,16,21,20,24,27,84,89,91,128,17,28,22,29,82},{94,25,30,33,95,23,31,92,136,85,19,70,18,88,26,59,16,21,20,24,27,84,89,91,128,17,28,22,29,82},{94,25,30,33,95,23,31,92,136,85,19,70,18,88,26,59,16,21,20,24,27,84,89,91,128,17,28,22,29,82},{94,25,30,33,95,23,31,92,136,85,19,70,18,88,26,59,16,21,20,24,27,84,89,91,128,17,28,22,29,82},{94,25,30,33,95,23,31,92,136,85,19,70,18,88,26,59,16,21,20,24,27,84,89,91,128,17,28,22,29,82},{94,25,30,33,95,23,31,92,136,85,19,70,18,88,26,59,16,21,20,24,27,84,89,91,128,28,17,22,29,82},{94,25,30,33,95,23,31,92,136,85,19,70,18,88,26,59,16,21,20,24,27,84,89,91,128,17,28,22,29,82},{94,25,30,33,95,23,31,92,136,85,19,70,18,88,26,59,16,21,20,24,27,84,89,91,128,17,28,22,29,82},{94,25,30,33,95,23,31,92,136,85,19,70,18,88,26,59,16,21,20,24,27,84,89,91,128,17,28,22,29,82},{7,48,65,69,13,12,6,3,60,62,106,0,15,49,50,52,53,11,10,14,1,5,8,64,32,51,66,2,9,4},{94,25,30,33,95,23,31,92,136,85,19,70,18,88,26,59,16,21,20,24,27,84,89,91,128,17,28,22,29,82},{94,25,30,95,23,158,31,92,85,19,70,18,88,26,59,34,16,21,20,24,27,84,89,91,17,28,22,29,82},{94,25,30,95,23,31,92,85,19,70,18,88,26,59,16,21,20,24,27,84,89,91,17,28,35,22,29,82,150},{25,177,178,30,183,23,31,19,18,26,16,21,20,24,27,17,28,22,29,36},{7,37,13,12,6,0,15,11,10,1,5,8,2,9,4},{7,13,12,6,0,15,11,10,1,5,8,38,2,9},{7,13,12,6,0,15,11,10,1,8,39,2,9},{7,40,13,12,0,15,11,10,1,8,2,9},{25,30,23,31,41,19,18,26,16,21,20,24,27,17,28,22,29},{25,30,42,23,31,19,18,26,16,21,20,24,27,17,28,22,29},{25,43,30,23,31,19,18,26,16,21,20,24,27,17,28,22,29},{25,30,23,31,19,18,44,26,16,21,20,24,27,17,28,22,29},{7,13,12,6,3,0,15,11,10,14,1,5,8,45,2,9,4},{7,13,12,6,3,0,15,11,10,14,1,5,46,8,2,9,4},{7,13,12,6,3,0,15,11,10,14,1,5,47,8,2,9,4},{7,48,65,69,152,13,12,6,3,60,62,106,0,15,49,50,52,53,11,10,14,1,5,8,64,51,66,2,9,4},{7,48,65,69,152,13,12,6,3,60,62,106,0,15,49,50,52,53,11,10,14,1,5,8,64,51,66,2,9,4},{7,48,65,69,152,13,12,6,3,60,62,106,0,15,49,50,52,53,11,10,14,1,5,8,64,51,66,2,9,4},{7,48,65,69,152,13,12,6,3,60,62,106,0,15,49,50,52,53,11,10,14,1,5,8,64,51,66,2,9,4},{7,48,65,69,152,13,12,6,3,60,62,106,0,15,49,50,52,53,11,10,14,1,5,8,64,51,66,2,9,4},{7,48,65,69,152,13,12,6,3,60,62,106,0,15,49,50,52,53,11,10,14,1,5,8,64,51,66,2,9,4},{25,30,23,54,31,19,18,26,16,21,20,24,27,17,28,22,29},{25,55,30,23,31,19,18,26,16,21,20,24,27,17,28,22,29},{25,30,23,31,19,56,18,26,16,21,20,24,27,17,28,22,29},{25,57,30,23,31,19,18,26,16,21,20,24,27,17,28,22,29},{25,58,30,23,31,19,18,26,16,21,20,24,27,17,28,22,29},{94,25,30,33,95,23,31,92,136,85,19,70,18,88,26,59,16,21,20,24,27,84,89,91,128,17,28,22,29,82},{7,48,65,69,152,13,12,6,3,60,62,106,0,15,49,50,52,53,11,10,14,1,5,8,64,51,66,2,9,4},{25,30,23,31,61,19,18,26,59,16,21,20,24,27,17,28,22,29},{7,48,65,69,152,13,12,6,3,60,62,106,0,15,49,50,52,53,11,10,14,1,5,8,64,51,66,2,9,4},{7,48,13,12,6,3,60,62,0,15,49,50,52,53,11,10,14,1,5,8,51,2,9,4,63},{7,48,65,69,152,13,12,6,3,60,62,106,0,15,49,50,52,53,11,10,14,1,5,8,64,51,66,2,9,4},{7,48,65,69,152,13,12,6,3,60,62,106,0,15,49,50,52,53,11,10,14,1,5,8,64,51,66,2,9,4},{7,48,65,69,152,13,12,6,3,60,62,106,0,15,49,50,52,53,11,10,14,1,5,8,64,51,66,2,9,4},{25,30,23,31,19,18,26,59,16,21,20,24,27,67,17,28,22,29},{73,25,68,30,23,31,19,72,70,18,26,59,16,21,20,24,27,17,28,22,29},{7,48,69,65,152,13,12,6,3,60,62,106,0,15,49,50,52,53,11,10,14,1,5,8,64,51,66,2,9,4},{94,25,30,33,95,23,31,92,136,85,19,70,18,88,26,59,16,21,20,24,27,84,89,91,128,17,28,22,29,82},{25,68,30,71,23,31,19,70,18,26,59,16,21,20,24,27,17,28,22,29},{73,25,68,30,23,31,19,72,70,18,26,59,16,21,20,24,27,17,28,22,29},{73,25,68,30,23,31,19,72,70,18,26,59,16,21,20,24,27,17,28,22,29},{25,30,23,31,19,70,74,18,26,59,16,21,20,24,27,17,28,22,29},{25,30,23,75,31,19,70,18,26,59,16,21,20,24,27,17,28,22,29},{25,76,79,30,23,31,77,19,70,18,26,59,16,21,20,24,27,17,28,80,22,29,78},{25,76,79,30,23,31,77,19,70,18,26,59,16,21,20,24,27,17,28,80,22,29,78},{25,76,79,30,23,31,77,19,70,18,26,59,16,21,20,24,27,17,28,80,22,29,78},{25,76,79,30,23,31,77,19,70,18,26,59,16,21,20,24,27,17,28,80,22,29,78},{25,76,79,30,23,31,77,19,70,18,26,59,16,21,20,24,27,17,28,80,22,29,78},{25,30,23,81,31,85,19,70,87,86,18,88,26,59,16,21,20,24,27,84,17,28,22,29,82},{94,25,30,33,95,23,31,92,136,85,19,70,18,88,26,59,16,21,20,24,27,84,89,91,128,17,28,22,29,82},{25,79,30,83,23,81,31,19,70,18,26,59,16,21,20,24,27,84,17,28,80,22,29,82},{94,25,30,33,95,23,31,92,136,85,19,70,18,88,26,59,16,21,20,24,27,84,89,91,128,17,28,22,29,82},{94,25,30,33,95,23,31,92,136,85,19,70,18,88,26,59,16,21,20,24,27,84,89,91,128,17,28,22,29,82},{25,30,23,81,31,85,19,70,87,86,18,88,26,59,16,21,20,24,27,84,17,28,22,29,82},{94,25,30,23,31,92,85,19,70,87,18,88,26,59,16,21,20,24,27,84,89,91,17,28,22,29,82},{94,25,30,33,95,23,31,92,136,85,19,70,18,88,26,59,16,21,20,24,27,84,89,91,128,17,28,22,29,82},{94,25,30,33,95,23,31,92,136,85,19,70,18,88,26,59,16,21,20,24,27,84,89,91,128,17,28,22,29,82},{25,30,23,31,85,90,19,70,87,86,18,88,26,59,16,21,20,24,27,84,89,17,28,22,29,82},{94,25,30,33,95,23,31,92,136,85,19,70,18,88,26,59,16,21,20,24,27,84,89,91,128,17,28,22,29,82},{94,25,30,33,95,23,31,92,136,85,19,70,18,88,26,59,16,21,20,24,27,84,89,91,128,17,28,22,29,82},{25,30,23,31,92,85,19,70,87,18,88,26,59,93,16,21,20,24,27,84,89,91,17,28,22,29,82},{94,25,30,33,95,23,31,92,136,85,19,70,18,88,26,59,16,21,20,24,27,84,89,91,128,17,28,22,29,82},{94,25,30,33,95,23,31,92,136,85,19,70,18,88,26,59,16,21,20,24,27,84,89,91,128,17,28,22,29,82},{94,25,30,95,23,31,92,85,19,70,18,88,26,59,16,21,20,24,27,84,89,91,17,28,96,22,29,82},{94,25,98,30,95,23,31,92,85,19,70,18,88,26,59,16,21,20,24,27,84,89,91,17,28,22,29,82,97},{94,25,98,30,95,23,31,92,85,19,70,18,88,26,59,16,21,20,24,27,84,89,91,17,28,22,29,82,97},{7,48,65,69,13,12,6,3,60,99,62,0,15,49,50,52,53,11,10,14,1,5,8,64,51,66,2,9,4},{7,48,65,69,13,12,6,100,3,60,62,0,15,49,50,52,53,11,10,14,1,5,8,64,51,66,2,9,4},{7,48,65,69,13,12,6,3,60,62,0,15,49,50,52,53,11,10,14,1,5,8,64,51,66,101,2,9,4},{7,48,65,69,13,12,6,3,60,62,0,15,49,50,52,53,11,10,14,1,5,102,8,64,51,66,2,9,4},{7,48,65,69,13,12,6,3,60,62,0,15,49,50,52,53,11,10,14,1,5,8,64,103,51,66,2,9,4},{7,48,65,69,13,12,6,104,3,60,62,0,15,49,50,52,53,11,10,14,1,5,8,64,51,66,2,9,4},{7,48,65,69,13,12,6,3,60,105,62,0,15,49,50,52,53,11,10,14,1,5,8,64,51,66,2,9,4},{7,48,65,69,152,13,12,6,3,60,62,106,0,15,49,50,52,53,11,10,14,1,5,8,64,51,66,2,9,4},{107},{94,25,30,109,95,23,31,92,85,19,70,18,88,26,59,108,16,21,20,24,27,84,89,91,17,28,22,29,82},{94,25,30,109,95,23,31,92,85,19,70,18,88,26,59,108,16,21,20,24,27,84,89,91,17,28,22,29,82},{7,48,65,69,13,12,6,3,60,62,0,15,49,50,52,53,110,11,10,14,1,5,8,64,32,51,66,2,9,4},{7,48,65,69,13,12,6,3,60,62,0,15,49,50,52,53,11,10,14,1,5,8,64,111,51,66,2,9,4},{94,25,30,95,23,31,92,85,19,70,18,88,26,59,112,16,21,20,24,27,84,89,91,17,28,22,29,82},{94,25,30,95,23,31,92,85,113,19,70,18,88,26,59,115,16,21,20,24,27,84,89,91,17,28,22,29,82,114},{94,25,30,95,23,31,92,85,113,19,70,18,88,26,59,115,16,21,20,24,27,84,89,91,17,28,22,29,82,114},{94,25,30,95,23,31,92,85,113,19,70,18,88,26,59,115,16,21,20,24,27,84,89,91,17,28,22,29,82,114},{7,48,65,69,13,12,6,3,60,62,0,15,49,50,52,53,11,10,14,118,1,5,8,64,51,66,2,9,4,116},{94,25,30,95,23,31,92,85,19,70,117,18,88,26,59,115,16,21,20,24,27,84,89,91,17,28,22,29,82},{7,48,65,69,13,12,6,3,60,62,0,15,49,50,52,53,11,10,14,118,1,5,8,64,51,66,2,9,4,116},{94,25,30,95,23,31,92,85,19,70,18,88,119,120,26,59,115,16,21,20,24,27,84,89,91,17,28,22,29,82},{94,25,30,95,23,31,92,85,19,70,18,88,120,119,26,59,115,16,21,20,24,27,84,89,91,17,28,22,29,82},{7,48,65,69,121,13,12,6,3,60,62,0,15,49,50,52,53,11,10,14,1,5,8,64,51,66,2,9,4},{94,25,30,95,23,31,92,85,19,70,18,88,26,59,122,16,21,20,24,27,84,89,91,17,28,22,29,82},{94,123,25,30,95,23,31,92,85,19,70,18,88,26,59,16,21,20,24,27,84,89,91,17,28,22,29,82,124},{94,123,25,30,95,23,31,92,85,19,70,18,88,26,59,16,21,20,24,27,84,89,91,17,28,22,29,82,124},{94,25,30,95,23,31,92,85,19,70,18,88,26,59,125,16,21,20,24,27,84,89,91,17,28,22,29,82},{25,30,23,31,126,19,18,26,16,21,20,24,27,17,28,22,29},{127},{94,25,30,33,95,23,31,92,136,85,19,70,18,88,26,59,16,21,20,24,27,84,89,91,128,17,28,22,29,82},{7,48,65,69,131,133,13,12,6,3,60,62,0,15,49,50,52,53,11,10,14,1,5,8,64,51,129,66,2,9,4},{94,25,30,33,95,23,31,92,85,130,19,70,18,88,26,59,16,21,20,24,27,84,89,91,128,17,28,22,29,82},{7,48,65,69,131,133,13,12,6,3,60,62,0,15,49,50,52,53,11,10,14,1,5,8,64,51,129,66,2,9,4},{94,25,30,33,95,23,31,92,85,19,70,18,88,26,59,132,16,21,20,24,27,84,89,91,128,17,28,22,29,82},{7,48,65,69,133,131,13,12,6,3,60,62,0,15,49,50,52,53,11,10,14,1,5,8,64,51,129,66,2,9,4},{7,48,65,69,13,12,6,3,60,62,0,15,49,50,52,53,11,10,14,1,5,8,64,51,129,66,134,2,9,4},{7,48,65,69,135,13,12,6,137,3,60,62,0,15,49,50,52,53,11,10,14,1,5,8,64,51,66,2,9,4},{94,25,30,33,95,23,31,92,136,85,19,70,18,88,26,59,16,21,20,24,27,84,89,91,128,17,28,22,29,82},{7,48,65,69,135,13,12,6,137,3,60,62,0,15,49,50,52,53,11,10,14,1,5,8,64,51,66,2,9,4},{7,48,65,69,13,12,6,3,60,62,0,15,138,49,50,52,53,11,10,14,1,5,8,64,51,66,2,9,4},{139},{94,25,30,33,95,23,31,92,85,19,140,70,18,88,26,59,16,21,20,24,27,84,89,91,17,28,22,29,82},{141},{7,48,65,69,13,12,6,3,60,62,0,15,143,49,50,52,53,144,11,10,14,1,5,8,64,51,66,142,2,9,4},{7,48,65,69,13,12,6,3,60,62,0,15,143,49,50,52,53,144,11,10,14,1,5,8,64,51,66,142,2,9,4},{7,48,65,69,13,12,6,3,60,62,0,15,143,49,50,52,53,144,11,10,14,1,5,8,64,51,66,142,2,9,4},{7,48,65,69,145,13,12,6,3,60,62,0,15,49,50,52,53,11,10,14,1,5,8,64,51,66,142,2,9,4},{7,48,65,69,13,12,6,3,60,62,146,0,15,147,49,50,52,53,11,10,14,1,5,8,64,51,66,2,9,4},{7,48,65,69,13,12,6,3,60,62,146,0,15,147,49,50,52,53,11,10,14,1,5,8,64,51,66,2,9,4},{7,48,65,69,13,12,6,3,60,62,0,15,49,50,52,53,11,10,14,1,5,8,64,51,148,66,2,9,4},{149},{94,25,30,95,23,31,92,85,19,70,18,88,26,59,16,21,20,24,27,84,89,91,17,28,35,22,29,82,150},{151},{7,48,65,69,152,13,12,6,3,60,62,106,0,15,49,50,52,53,11,10,14,1,5,8,64,51,66,2,9,4},{7,48,65,69,13,12,6,3,60,62,106,0,15,49,50,52,53,11,10,14,1,5,153,8,64,51,66,2,9,4},{7,48,65,69,13,12,6,3,60,62,106,0,15,49,50,52,53,11,10,14,1,5,154,8,64,51,66,2,9,4},{7,48,65,69,13,12,6,3,60,62,106,155,0,15,49,50,52,53,11,10,14,1,5,8,64,51,66,2,9,4},{7,48,65,69,13,12,6,3,60,62,106,0,15,49,50,52,53,11,10,14,1,5,156,8,64,51,66,2,9,4},{157},{94,25,30,95,23,158,31,92,85,19,70,18,88,26,59,34,16,21,20,24,27,84,89,91,17,28,22,29,82},{159},{160,25,30,23,31,19,18,26,161,16,21,20,24,27,17,28,22,29},{160,25,30,23,31,19,18,26,161,16,21,20,24,27,17,28,22,29},{7,48,13,12,6,3,0,15,49,50,52,53,11,10,14,162,1,5,8,51,2,9,4,163,164},{7,48,13,12,6,3,0,15,49,50,52,53,11,10,14,162,1,5,8,51,2,9,4,163,164},{7,48,13,12,6,3,0,15,49,50,52,53,11,10,14,162,1,5,8,51,2,9,4,163,164},{166,25,30,23,31,165,19,18,26,16,21,20,24,27,17,28,22,29},{166,25,30,23,31,165,19,18,26,16,21,20,24,27,17,28,22,29},{25,30,23,172,171,31,167,169,19,168,18,26,173,170,16,21,20,174,24,27,17,28,22,29},{25,30,23,172,171,31,167,169,19,168,18,26,173,170,16,21,20,174,24,27,17,28,22,29},{25,30,23,172,171,31,167,169,19,168,18,26,173,170,16,21,20,174,24,27,17,28,22,29},{25,30,23,172,171,31,167,169,19,168,18,26,173,170,16,21,20,174,24,27,17,28,22,29},{25,30,23,172,171,31,167,169,19,168,18,26,173,170,16,21,20,174,24,27,17,28,22,29},{25,30,23,172,171,31,167,169,19,168,18,26,173,170,16,21,20,174,24,27,17,28,22,29},{25,30,23,172,171,31,167,169,19,168,18,26,173,170,16,21,20,174,24,27,17,28,22,29},{25,30,23,172,171,31,167,169,19,168,18,26,173,170,16,21,20,174,24,27,17,28,22,29},{25,30,23,31,19,18,26,175,176,16,21,20,24,27,17,28,22,29},{25,177,30,23,31,19,18,26,176,16,21,20,24,27,17,28,22,29},{25,177,178,30,183,23,31,19,18,26,16,21,20,24,27,17,28,22,29,36},{25,177,178,30,183,23,31,19,18,26,16,21,20,24,27,17,28,22,29,36},{179},{7,48,180,13,12,6,3,0,15,49,50,52,53,11,10,14,1,5,8,51,2,9,4},{7,48,13,12,6,3,0,15,181,49,50,52,53,11,10,14,1,5,8,51,2,9,4},{182},{25,177,178,30,183,23,31,19,18,26,16,21,20,24,27,17,28,22,29,36},{25,184,30,23,31,19,18,26,16,21,20,24,27,17,28,22,29},{25,30,23,31,19,18,26,16,21,20,24,27,185,17,28,22,29}];
nr_cliques=186;
