projet_m2_wvcp/original_wvcp_dzn/mulsol.i.5.dzn
name="mulsol.i.5";
nr_vertices=186;
nr_edges=3973;
neighborhoods=[{1,2,3,4,5,6,7,8,9,10,11,12,13,14,15,32,45,46,47,48,49,50,51,52,53,60,62,63,64,65,66,69,99,100,101,102,103,104,105,106,110,111,116,118,121,129,131,133,134,135,137,138,142,143,144,145,146,147,148,152,153,154,155,156,162,163,164,180,181,67,61,59,58,57,56,55,54,44,43,42,41,40,39,38,37,185,184,36,178,177,176,175,183,174,173,172,171,170,169,168,167,166,165,161,160,96,95,94,93,92,91,90,89,88,87,86,85,84,83,82,81,80,79,78,77,76,75,74,73,72,71,70,68,98,97,34,158,109,108,35,150,120,119,117,115,114,113,112,33,140,136,132,130,128,125,124,123,122,126},{0,2,3,4,5,6,7,8,9,10,11,12,13,14,15,32,45,46,47,48,49,50,51,52,53,60,62,63,64,65,66,69,99,100,101,102,103,104,105,106,110,111,116,118,121,129,131,133,134,135,137,138,142,143,144,145,146,147,148,152,153,154,155,156,162,163,164,180,181,67,61,59,58,57,56,55,54,44,43,42,41,40,39,38,37,185,184,36,178,177,176,175,183,174,173,172,171,170,169,168,167,166,165,161,160,96,95,94,93,92,91,90,89,88,87,86,85,84,83,82,81,80,79,78,77,76,75,74,73,72,71,70,68,98,97,34,158,109,108,35,150,120,119,117,115,114,113,112,33,140,136,132,130,128,125,124,123,122,126},{0,1,3,4,5,6,7,8,9,10,11,12,13,14,15,32,45,46,47,48,49,50,51,52,53,60,62,63,64,65,66,69,99,100,101,102,103,104,105,106,110,111,116,118,121,129,131,133,134,135,137,138,142,143,144,145,146,147,148,152,153,154,155,156,162,163,164,180,181,59,58,57,56,55,54,44,43,42,41,40,39,38,37},{0,1,2,4,5,6,7,8,9,10,11,12,13,14,15,32,45,46,47,48,49,50,51,52,53,60,62,63,64,65,66,69,99,100,101,102,103,104,105,106,110,111,116,118,121,129,131,133,134,135,137,138,142,143,144,145,146,147,148,152,153,154,155,156,162,163,164,180,181},{0,1,2,3,5,6,7,8,9,10,11,12,13,14,15,32,45,46,47,48,49,50,51,52,53,60,62,63,64,65,66,69,99,100,101,102,103,104,105,106,110,111,116,118,121,129,131,133,134,135,137,138,142,143,144,145,146,147,148,152,153,154,155,156,162,163,164,180,181,37,174},{0,1,2,3,4,6,7,8,9,10,11,12,13,14,15,32,45,46,47,48,49,50,51,52,53,60,62,63,64,65,66,69,99,100,101,102,103,104,105,106,110,111,116,118,121,129,131,133,134,135,137,138,142,143,144,145,146,147,148,152,153,154,155,156,162,163,164,180,181,38,37,173,174},{0,1,2,3,4,5,7,8,9,10,11,12,13,14,15,32,45,46,47,48,49,50,51,52,53,60,62,63,64,65,66,69,99,100,101,102,103,104,105,106,110,111,116,118,121,129,131,133,134,135,137,138,142,143,144,145,146,147,148,152,153,154,155,156,162,163,164,180,181,39,38,37,172,173,174},{0,1,2,3,4,5,6,8,9,10,11,12,13,14,15,32,45,46,47,48,49,50,51,52,53,60,62,63,64,65,66,69,99,100,101,102,103,104,105,106,110,111,116,118,121,129,131,133,134,135,137,138,142,143,144,145,146,147,148,152,153,154,155,156,162,163,164,180,181,40,39,38,37,171,172,173,174},{0,1,2,3,4,5,6,7,9,10,11,12,13,14,15,32,45,46,47,48,49,50,51,52,53,60,62,63,64,65,66,69,99,100,101,102,103,104,105,106,110,111,116,118,121,129,131,133,134,135,137,138,142,143,144,145,146,147,148,152,153,154,155,156,162,163,164,180,181,41,40,39,38,37,170,171,172,173,174},{0,1,2,3,4,5,6,7,8,10,11,12,13,14,15,32,45,46,47,48,49,50,51,52,53,60,62,63,64,65,66,69,99,100,101,102,103,104,105,106,110,111,116,118,121,129,131,133,134,135,137,138,142,143,144,145,146,147,148,152,153,154,155,156,162,163,164,180,181,42,41,40,39,38,37,169,170,171,172,173,174},{0,1,2,3,4,5,6,7,8,9,11,12,13,14,15,32,45,46,47,48,49,50,51,52,53,60,62,63,64,65,66,69,99,100,101,102,103,104,105,106,110,111,116,118,121,129,131,133,134,135,137,138,142,143,144,145,146,147,148,152,153,154,155,156,162,163,164,180,181,44,43,42,41,40,39,38,37},{0,1,2,3,4,5,6,7,8,9,10,12,13,14,15,32,45,46,47,48,49,50,51,52,53,60,62,63,64,65,66,69,99,100,101,102,103,104,105,106,110,111,116,118,121,129,131,133,134,135,137,138,142,143,144,145,146,147,148,152,153,154,155,156,162,163,164,180,181,55,54,44,43,42,41,40,39,38,37},{0,1,2,3,4,5,6,7,8,9,10,11,13,14,15,32,45,46,47,48,49,50,51,52,53,60,62,63,64,65,66,69,99,100,101,102,103,104,105,106,110,111,116,118,121,129,131,133,134,135,137,138,142,143,144,145,146,147,148,152,153,154,155,156,162,163,164,180,181,57,56,55,54,44,43,42,41,40,39,38,37},{0,1,2,3,4,5,6,7,8,9,10,11,12,14,15,32,45,46,47,48,49,50,51,52,53,60,62,63,64,65,66,69,99,100,101,102,103,104,105,106,110,111,116,118,121,129,131,133,134,135,137,138,142,143,144,145,146,147,148,152,153,154,155,156,162,163,164,180,181,58,57,56,55,54,44,43,42,41,40,39,38,37},{0,1,2,3,4,5,6,7,8,9,10,11,12,13,15,32,45,46,47,48,49,50,51,52,53,60,62,63,64,65,66,69,99,100,101,102,103,104,105,106,110,111,116,118,121,129,131,133,134,135,137,138,142,143,144,145,146,147,148,152,153,154,155,156,162,163,164,180,181},{0,1,2,3,4,5,6,7,8,9,10,11,12,13,14,32,45,46,47,48,49,50,51,52,53,60,62,63,64,65,66,69,99,100,101,102,103,104,105,106,110,111,116,118,121,129,131,133,134,135,137,138,142,143,144,145,146,147,148,152,153,154,155,156,162,163,164,180,181,43,42,41,40,39,38,37,169,170,171,172,173,174,168},{17,18,19,20,21,22,23,24,25,26,27,28,29,30,31,33,34,35,36,37,38,39,40,41,42,43,44,54,55,56,57,58,59,61,67,68,70,71,72,73,74,75,76,77,78,79,80,81,82,83,84,85,86,87,88,89,90,91,92,93,94,95,96,97,98,108,109,112,113,114,115,117,119,120,122,123,124,125,126,128,130,132,136,140,150,158,160,161,165,166,167,168,169,170,171,172,173,174,175,176,177,178,183,184,185,66,65,64,63,62,60,53,52,51,50,49,48,47,46,45,181,180,164,163,162,69,32,106,105,104,103,102,101,100,99,156,155,154,153,152,111,110,148,147,146,145,144,143,142,121,118,116,138,137,135,134,133,131,129},{16,18,19,20,21,22,23,24,25,26,27,28,29,30,31,33,34,35,36,37,38,39,40,41,42,43,44,54,55,56,57,58,59,61,67,68,70,71,72,73,74,75,76,77,78,79,80,81,82,83,84,85,86,87,88,89,90,91,92,93,94,95,96,97,98,108,109,112,113,114,115,117,119,120,122,123,124,125,126,128,130,132,136,140,150,158,160,161,165,166,167,168,169,170,171,172,173,174,175,176,177,178,183,184,185},{16,17,19,20,21,22,23,24,25,26,27,28,29,30,31,33,34,35,36,37,38,39,40,41,42,43,44,54,55,56,57,58,59,61,67,68,70,71,72,73,74,75,76,77,78,79,80,81,82,83,84,85,86,87,88,89,90,91,92,93,94,95,96,97,98,108,109,112,113,114,115,117,119,120,122,123,124,125,126,128,130,132,136,140,150,158,160,161,165,166,167,168,169,170,171,172,173,174,175,176,177,178,183,184,185,45,162},{16,17,18,20,21,22,23,24,25,26,27,28,29,30,31,33,34,35,36,37,38,39,40,41,42,43,44,54,55,56,57,58,59,61,67,68,70,71,72,73,74,75,76,77,78,79,80,81,82,83,84,85,86,87,88,89,90,91,92,93,94,95,96,97,98,108,109,112,113,114,115,117,119,120,122,123,124,125,126,128,130,132,136,140,150,158,160,161,165,166,167,168,169,170,171,172,173,174,175,176,177,178,183,184,185,46,45,163,162},{16,17,18,19,21,22,23,24,25,26,27,28,29,30,31,33,34,35,36,37,38,39,40,41,42,43,44,54,55,56,57,58,59,61,67,68,70,71,72,73,74,75,76,77,78,79,80,81,82,83,84,85,86,87,88,89,90,91,92,93,94,95,96,97,98,108,109,112,113,114,115,117,119,120,122,123,124,125,126,128,130,132,136,140,150,158,160,161,165,166,167,168,169,170,171,172,173,174,175,176,177,178,183,184,185,47,46,45,164,163,162},{16,17,18,19,20,22,23,24,25,26,27,28,29,30,31,33,34,35,36,37,38,39,40,41,42,43,44,54,55,56,57,58,59,61,67,68,70,71,72,73,74,75,76,77,78,79,80,81,82,83,84,85,86,87,88,89,90,91,92,93,94,95,96,97,98,108,109,112,113,114,115,117,119,120,122,123,124,125,126,128,130,132,136,140,150,158,160,161,165,166,167,168,169,170,171,172,173,174,175,176,177,178,183,184,185,48,47,46,45,164,163,162},{16,17,18,19,20,21,23,24,25,26,27,28,29,30,31,33,34,35,36,37,38,39,40,41,42,43,44,54,55,56,57,58,59,61,67,68,70,71,72,73,74,75,76,77,78,79,80,81,82,83,84,85,86,87,88,89,90,91,92,93,94,95,96,97,98,108,109,112,113,114,115,117,119,120,122,123,124,125,126,128,130,132,136,140,150,158,160,161,165,166,167,168,169,170,171,172,173,174,175,176,177,178,183,184,185,49,48,47,46,45,164,163,162},{16,17,18,19,20,21,22,24,25,26,27,28,29,30,31,33,34,35,36,37,38,39,40,41,42,43,44,54,55,56,57,58,59,61,67,68,70,71,72,73,74,75,76,77,78,79,80,81,82,83,84,85,86,87,88,89,90,91,92,93,94,95,96,97,98,108,109,112,113,114,115,117,119,120,122,123,124,125,126,128,130,132,136,140,150,158,160,161,165,166,167,168,169,170,171,172,173,174,175,176,177,178,183,184,185,50,49,48,47,46,45,164,163,162},{16,17,18,19,20,21,22,23,25,26,27,28,29,30,31,33,34,35,36,37,38,39,40,41,42,43,44,54,55,56,57,58,59,61,67,68,70,71,72,73,74,75,76,77,78,79,80,81,82,83,84,85,86,87,88,89,90,91,92,93,94,95,96,97,98,108,109,112,113,114,115,117,119,120,122,123,124,125,126,128,130,132,136,140,150,158,160,161,165,166,167,168,169,170,171,172,173,174,175,176,177,178,183,184,185,51,50,49,48,47,46,45,164,163,162},{16,17,18,19,20,21,22,23,24,26,27,28,29,30,31,33,34,35,36,37,38,39,40,41,42,43,44,54,55,56,57,58,59,61,67,68,70,71,72,73,74,75,76,77,78,79,80,81,82,83,84,85,86,87,88,89,90,91,92,93,94,95,96,97,98,108,109,112,113,114,115,117,119,120,122,123,124,125,126,128,130,132,136,140,150,158,160,161,165,166,167,168,169,170,171,172,173,174,175,176,177,178,183,184,185,52,51,50,49,48,47,46,45,164,163,162},{16,17,18,19,20,21,22,23,24,25,27,28,29,30,31,33,34,35,36,37,38,39,40,41,42,43,44,54,55,56,57,58,59,61,67,68,70,71,72,73,74,75,76,77,78,79,80,81,82,83,84,85,86,87,88,89,90,91,92,93,94,95,96,97,98,108,109,112,113,114,115,117,119,120,122,123,124,125,126,128,130,132,136,140,150,158,160,161,165,166,167,168,169,170,171,172,173,174,175,176,177,178,183,184,185},{16,17,18,19,20,21,22,23,24,25,26,28,29,30,31,33,34,35,36,37,38,39,40,41,42,43,44,54,55,56,57,58,59,61,67,68,70,71,72,73,74,75,76,77,78,79,80,81,82,83,84,85,86,87,88,89,90,91,92,93,94,95,96,97,98,108,109,112,113,114,115,117,119,120,122,123,124,125,126,128,130,132,136,140,150,158,160,161,165,166,167,168,169,170,171,172,173,174,175,176,177,178,183,184,185},{16,17,18,19,20,21,22,23,24,25,26,27,29,30,31,33,34,35,36,37,38,39,40,41,42,43,44,54,55,56,57,58,59,61,67,68,70,71,72,73,74,75,76,77,78,79,80,81,82,83,84,85,86,87,88,89,90,91,92,93,94,95,96,97,98,108,109,112,113,114,115,117,119,120,122,123,124,125,126,128,130,132,136,140,150,158,160,161,165,166,167,168,169,170,171,172,173,174,175,176,177,178,183,184,185},{16,17,18,19,20,21,22,23,24,25,26,27,28,30,31,33,34,35,36,37,38,39,40,41,42,43,44,54,55,56,57,58,59,61,67,68,70,71,72,73,74,75,76,77,78,79,80,81,82,83,84,85,86,87,88,89,90,91,92,93,94,95,96,97,98,108,109,112,113,114,115,117,119,120,122,123,124,125,126,128,130,132,136,140,150,158,160,161,165,166,167,168,169,170,171,172,173,174,175,176,177,178,183,184,185},{16,17,18,19,20,21,22,23,24,25,26,27,28,29,31,33,34,35,36,37,38,39,40,41,42,43,44,54,55,56,57,58,59,61,67,68,70,71,72,73,74,75,76,77,78,79,80,81,82,83,84,85,86,87,88,89,90,91,92,93,94,95,96,97,98,108,109,112,113,114,115,117,119,120,122,123,124,125,126,128,130,132,136,140,150,158,160,161,165,166,167,168,169,170,171,172,173,174,175,176,177,178,183,184,185},{16,17,18,19,20,21,22,23,24,25,26,27,28,29,30,33,34,35,36,37,38,39,40,41,42,43,44,54,55,56,57,58,59,61,67,68,70,71,72,73,74,75,76,77,78,79,80,81,82,83,84,85,86,87,88,89,90,91,92,93,94,95,96,97,98,108,109,112,113,114,115,117,119,120,122,123,124,125,126,128,130,132,136,140,150,158,160,161,165,166,167,168,169,170,171,172,173,174,175,176,177,178,183,184,185},{0,1,2,3,4,5,6,7,8,9,10,11,12,13,14,15,16,106,69,66,65,64,62,60,53,52,51,50,49,48,110},{0,1,16,17,18,19,20,21,22,23,24,25,26,27,28,29,30,31,95,94,92,91,89,88,85,84,82,70,59,140,136,132,130,128},{0,1,16,17,18,19,20,21,22,23,24,25,26,27,28,29,30,31,95,94,92,91,89,88,85,84,82,70,59,158},{0,1,16,17,18,19,20,21,22,23,24,25,26,27,28,29,30,31,95,94,92,91,89,88,85,84,82,70,59,150},{0,1,16,17,18,19,20,21,22,23,24,25,26,27,28,29,30,31,178,177,183},{0,1,2,4,5,6,7,8,9,10,11,12,13,15,16,17,18,19,20,21,22,23,24,25,26,27,28,29,30,31},{0,1,2,5,6,7,8,9,10,11,12,13,15,16,17,18,19,20,21,22,23,24,25,26,27,28,29,30,31},{0,1,2,6,7,8,9,10,11,12,13,15,16,17,18,19,20,21,22,23,24,25,26,27,28,29,30,31},{0,1,2,7,8,9,10,11,12,13,15,16,17,18,19,20,21,22,23,24,25,26,27,28,29,30,31},{0,1,2,8,9,10,11,12,13,15,16,17,18,19,20,21,22,23,24,25,26,27,28,29,30,31},{0,1,2,9,10,11,12,13,15,16,17,18,19,20,21,22,23,24,25,26,27,28,29,30,31},{0,1,2,10,11,12,13,15,16,17,18,19,20,21,22,23,24,25,26,27,28,29,30,31},{0,1,2,10,11,12,13,16,17,18,19,20,21,22,23,24,25,26,27,28,29,30,31},{0,1,2,3,4,5,6,7,8,9,10,11,12,13,14,15,16,18,19,20,21,22,23,24,25},{0,1,2,3,4,5,6,7,8,9,10,11,12,13,14,15,16,19,20,21,22,23,24,25},{0,1,2,3,4,5,6,7,8,9,10,11,12,13,14,15,16,20,21,22,23,24,25},{0,1,2,3,4,5,6,7,8,9,10,11,12,13,14,15,16,21,22,23,24,25,32,66,65,64,63,62,60,53,52,51,50,49,181,180,164,163,162,69,106,105,104,103,102,101,100,99,156,155,154,153,152,111,110,148,147,146,145,144,143,142,121,118,116,138,137,135,134,133,131,129},{0,1,2,3,4,5,6,7,8,9,10,11,12,13,14,15,16,22,23,24,25,32,48,66,65,64,63,62,60,53,52,51,50,181,180,164,163,162,69,106,105,104,103,102,101,100,99,156,155,154,153,152,111,110,148,147,146,145,144,143,142,121,118,116,138,137,135,134,133,131,129},{0,1,2,3,4,5,6,7,8,9,10,11,12,13,14,15,16,23,24,25,32,48,49,66,65,64,63,62,60,53,52,51,181,180,164,163,162,69,106,105,104,103,102,101,100,99,156,155,154,153,152,111,110,148,147,146,145,144,143,142,121,118,116,138,137,135,134,133,131,129},{0,1,2,3,4,5,6,7,8,9,10,11,12,13,14,15,16,24,25,32,48,49,50,66,65,64,63,62,60,53,52,181,180,164,163,162,69,106,105,104,103,102,101,100,99,156,155,154,153,152,111,110,148,147,146,145,144,143,142,121,118,116,138,137,135,134,133,131,129},{0,1,2,3,4,5,6,7,8,9,10,11,12,13,14,15,16,25,32,48,49,50,51,66,65,64,63,62,60,53,181,180,164,163,162,69,106,105,104,103,102,101,100,99,156,155,154,153,152,111,110,148,147,146,145,144,143,142,121,118,116,138,137,135,134,133,131,129},{0,1,2,3,4,5,6,7,8,9,10,11,12,13,14,15,16,32,48,49,50,51,52,66,65,64,63,62,60,181,180,164,163,162,69,106,105,104,103,102,101,100,99,156,155,154,153,152,111,110,148,147,146,145,144,143,142,121,118,116,138,137,135,134,133,131,129},{0,1,2,11,12,13,16,17,18,19,20,21,22,23,24,25,26,27,28,29,30,31},{0,1,2,11,12,13,16,17,18,19,20,21,22,23,24,25,26,27,28,29,30,31},{0,1,2,12,13,16,17,18,19,20,21,22,23,24,25,26,27,28,29,30,31},{0,1,2,12,13,16,17,18,19,20,21,22,23,24,25,26,27,28,29,30,31},{0,1,2,13,16,17,18,19,20,21,22,23,24,25,26,27,28,29,30,31},{0,1,2,16,17,18,19,20,21,22,23,24,25,26,27,28,29,30,31,33,34,35,67,61,96,95,94,93,92,91,90,89,88,87,86,85,84,83,82,81,80,79,78,77,76,75,74,73,72,71,70,68,98,97,158,109,108,150,120,119,117,115,114,113,112,140,136,132,130,128,125,124,123,122},{0,1,2,3,4,5,6,7,8,9,10,11,12,13,14,15,16,32,48,49,50,51,52,53,66,65,64,63,62,69,106,105,104,103,102,101,100,99,156,155,154,153,152,111,110,148,147,146,145,144,143,142,121,118,116,138,137,135,134,133,131,129},{0,1,16,17,18,19,20,21,22,23,24,25,26,27,28,29,30,31,59},{0,1,2,3,4,5,6,7,8,9,10,11,12,13,14,15,16,32,48,49,50,51,52,53,60,66,65,64,63,69,106,105,104,103,102,101,100,99,156,155,154,153,152,111,110,148,147,146,145,144,143,142,121,118,116,138,137,135,134,133,131,129},{0,1,2,3,4,5,6,7,8,9,10,11,12,13,14,15,16,48,49,50,51,52,53,60,62},{0,1,2,3,4,5,6,7,8,9,10,11,12,13,14,15,16,32,48,49,50,51,52,53,60,62,66,65,69,106,105,104,103,102,101,100,99,156,155,154,153,152,111,110,148,147,146,145,144,143,142,121,118,116,138,137,135,134,133,131,129},{0,1,2,3,4,5,6,7,8,9,10,11,12,13,14,15,16,32,48,49,50,51,52,53,60,62,64,66,69,106,105,104,103,102,101,100,99,156,155,154,153,152,111,110,148,147,146,145,144,143,142,121,118,116,138,137,135,134,133,131,129},{0,1,2,3,4,5,6,7,8,9,10,11,12,13,14,15,16,32,48,49,50,51,52,53,60,62,64,65,69,106,105,104,103,102,101,100,99,156,155,154,153,152,111,110,148,147,146,145,144,143,142,121,118,116,138,137,135,134,133,131,129},{0,1,16,17,18,19,20,21,22,23,24,25,26,27,28,29,30,31,59},{0,1,16,17,18,19,20,21,22,23,24,25,26,27,28,29,30,31,59,73,72,71,70},{0,1,2,3,4,5,6,7,8,9,10,11,12,13,14,15,16,32,48,49,50,51,52,53,60,62,64,65,66,106,105,104,103,102,101,100,99,156,155,154,153,152,111,110,148,147,146,145,144,143,142,121,118,116,138,137,135,134,133,131,129},{0,1,16,17,18,19,20,21,22,23,24,25,26,27,28,29,30,31,33,34,35,59,68,96,95,94,93,92,91,90,89,88,87,86,85,84,83,82,81,80,79,78,77,76,75,74,73,72,71,98,97,158,109,108,150,120,119,117,115,114,113,112,140,136,132,130,128,125,124,123,122},{0,1,16,17,18,19,20,21,22,23,24,25,26,27,28,29,30,31,59,68,70},{0,1,16,17,18,19,20,21,22,23,24,25,26,27,28,29,30,31,59,68,70,73},{0,1,16,17,18,19,20,21,22,23,24,25,26,27,28,29,30,31,59,68,70,72},{0,1,16,17,18,19,20,21,22,23,24,25,26,27,28,29,30,31,59,70},{0,1,16,17,18,19,20,21,22,23,24,25,26,27,28,29,30,31,59,70},{0,1,16,17,18,19,20,21,22,23,24,25,26,27,28,29,30,31,59,70,80,79,78,77},{0,1,16,17,18,19,20,21,22,23,24,25,26,27,28,29,30,31,59,70,76,82,81,80,79,78},{0,1,16,17,18,19,20,21,22,23,24,25,26,27,28,29,30,31,59,70,76,77,83,82,81,80,79},{0,1,16,17,18,19,20,21,22,23,24,25,26,27,28,29,30,31,59,70,76,77,78,84,83,82,81,80},{0,1,16,17,18,19,20,21,22,23,24,25,26,27,28,29,30,31,59,70,76,77,78,79,86,85,84,83,82,81},{0,1,16,17,18,19,20,21,22,23,24,25,26,27,28,29,30,31,59,70,77,78,79,80,88,87,86,85,84,83,82},{0,1,16,17,18,19,20,21,22,23,24,25,26,27,28,29,30,31,33,34,35,59,70,77,78,79,80,81,96,95,94,93,92,91,90,89,88,87,86,85,84,83,98,97,158,109,108,150,120,119,117,115,114,113,112,140,136,132,130,128,125,124,123,122},{0,1,16,17,18,19,20,21,22,23,24,25,26,27,28,29,30,31,59,70,78,79,80,81,82,85,84},{0,1,16,17,18,19,20,21,22,23,24,25,26,27,28,29,30,31,33,34,35,59,70,79,80,81,82,83,96,95,94,93,92,91,90,89,88,87,86,85,98,97,158,109,108,150,120,119,117,115,114,113,112,140,136,132,130,128,125,124,123,122},{0,1,16,17,18,19,20,21,22,23,24,25,26,27,28,29,30,31,33,34,35,59,70,80,81,82,83,84,96,95,94,93,92,91,90,89,88,87,86,98,97,158,109,108,150,120,119,117,115,114,113,112,140,136,132,130,128,125,124,123,122},{0,1,16,17,18,19,20,21,22,23,24,25,26,27,28,29,30,31,59,70,80,81,82,84,85,91,90,89,88,87},{0,1,16,17,18,19,20,21,22,23,24,25,26,27,28,29,30,31,59,70,81,82,84,85,86,94,93,92,91,90,89,88},{0,1,16,17,18,19,20,21,22,23,24,25,26,27,28,29,30,31,33,34,35,59,70,81,82,84,85,86,87,96,95,94,93,92,91,90,89,98,97,158,109,108,150,120,119,117,115,114,113,112,140,136,132,130,128,125,124,123,122},{0,1,16,17,18,19,20,21,22,23,24,25,26,27,28,29,30,31,33,34,35,59,70,82,84,85,86,87,88,96,95,94,93,92,91,90,98,97,158,109,108,150,120,119,117,115,114,113,112,140,136,132,130,128,125,124,123,122},{0,1,16,17,18,19,20,21,22,23,24,25,26,27,28,29,30,31,59,70,82,84,85,86,87,88,89},{0,1,16,17,18,19,20,21,22,23,24,25,26,27,28,29,30,31,33,34,35,59,70,82,84,85,86,87,88,89,96,95,94,93,92,98,97,158,109,108,150,120,119,117,115,114,113,112,140,136,132,130,128,125,124,123,122},{0,1,16,17,18,19,20,21,22,23,24,25,26,27,28,29,30,31,33,34,35,59,70,82,84,85,87,88,89,91,96,95,94,93,98,97,158,109,108,150,120,119,117,115,114,113,112,140,136,132,130,128,125,124,123,122},{0,1,16,17,18,19,20,21,22,23,24,25,26,27,28,29,30,31,59,70,82,84,85,87,88,89,91,92},{0,1,16,17,18,19,20,21,22,23,24,25,26,27,28,29,30,31,33,34,35,59,70,82,84,85,87,88,89,91,92,96,95,98,97,158,109,108,150,120,119,117,115,114,113,112,140,136,132,130,128,125,124,123,122},{0,1,16,17,18,19,20,21,22,23,24,25,26,27,28,29,30,31,33,34,35,59,70,82,84,85,88,89,91,92,94,96,98,97,158,109,108,150,120,119,117,115,114,113,112,140,136,132,130,128,125,124,123,122},{0,1,16,17,18,19,20,21,22,23,24,25,26,27,28,29,30,31,59,70,82,84,85,88,89,91,92,94,95},{0,1,16,17,18,19,20,21,22,23,24,25,26,27,28,29,30,31,59,70,82,84,85,88,89,91,92,94,95,98},{0,1,16,17,18,19,20,21,22,23,24,25,26,27,28,29,30,31,59,70,82,84,85,88,89,91,92,94,95,97},{0,1,2,3,4,5,6,7,8,9,10,11,12,13,14,15,16,48,49,50,51,52,53,60,62,64,65,66,69},{0,1,2,3,4,5,6,7,8,9,10,11,12,13,14,15,16,48,49,50,51,52,53,60,62,64,65,66,69},{0,1,2,3,4,5,6,7,8,9,10,11,12,13,14,15,16,48,49,50,51,52,53,60,62,64,65,66,69},{0,1,2,3,4,5,6,7,8,9,10,11,12,13,14,15,16,48,49,50,51,52,53,60,62,64,65,66,69},{0,1,2,3,4,5,6,7,8,9,10,11,12,13,14,15,16,48,49,50,51,52,53,60,62,64,65,66,69},{0,1,2,3,4,5,6,7,8,9,10,11,12,13,14,15,16,48,49,50,51,52,53,60,62,64,65,66,69},{0,1,2,3,4,5,6,7,8,9,10,11,12,13,14,15,16,48,49,50,51,52,53,60,62,64,65,66,69},{0,1,2,3,4,5,6,7,8,9,10,11,12,13,14,15,16,32,48,49,50,51,52,53,60,62,64,65,66,69,156,155,154,153,152},{},{0,1,16,17,18,19,20,21,22,23,24,25,26,27,28,29,30,31,59,70,82,84,85,88,89,91,92,94,95,109},{0,1,16,17,18,19,20,21,22,23,24,25,26,27,28,29,30,31,59,70,82,84,85,88,89,91,92,94,95,108},{0,1,2,3,4,5,6,7,8,9,10,11,12,13,14,15,16,32,48,49,50,51,52,53,60,62,64,65,66,69},{0,1,2,3,4,5,6,7,8,9,10,11,12,13,14,15,16,48,49,50,51,52,53,60,62,64,65,66,69},{0,1,16,17,18,19,20,21,22,23,24,25,26,27,28,29,30,31,59,70,82,84,85,88,89,91,92,94,95},{0,1,16,17,18,19,20,21,22,23,24,25,26,27,28,29,30,31,59,70,82,84,85,88,89,91,92,94,95,115,114},{0,1,16,17,18,19,20,21,22,23,24,25,26,27,28,29,30,31,59,70,82,84,85,88,89,91,92,94,95,113,115},{0,1,16,17,18,19,20,21,22,23,24,25,26,27,28,29,30,31,59,70,82,84,85,88,89,91,92,94,95,113,114,120,119,117},{0,1,2,3,4,5,6,7,8,9,10,11,12,13,14,15,16,48,49,50,51,52,53,60,62,64,65,66,69,118},{0,1,16,17,18,19,20,21,22,23,24,25,26,27,28,29,30,31,59,70,82,84,85,88,89,91,92,94,95,115},{0,1,2,3,4,5,6,7,8,9,10,11,12,13,14,15,16,48,49,50,51,52,53,60,62,64,65,66,69,116},{0,1,16,17,18,19,20,21,22,23,24,25,26,27,28,29,30,31,59,70,82,84,85,88,89,91,92,94,95,115,120},{0,1,16,17,18,19,20,21,22,23,24,25,26,27,28,29,30,31,59,70,82,84,85,88,89,91,92,94,95,115,119},{0,1,2,3,4,5,6,7,8,9,10,11,12,13,14,15,16,48,49,50,51,52,53,60,62,64,65,66,69},{0,1,16,17,18,19,20,21,22,23,24,25,26,27,28,29,30,31,59,70,82,84,85,88,89,91,92,94,95},{0,1,16,17,18,19,20,21,22,23,24,25,26,27,28,29,30,31,59,70,82,84,85,88,89,91,92,94,95,124},{0,1,16,17,18,19,20,21,22,23,24,25,26,27,28,29,30,31,59,70,82,84,85,88,89,91,92,94,95,123},{0,1,16,17,18,19,20,21,22,23,24,25,26,27,28,29,30,31,59,70,82,84,85,88,89,91,92,94,95},{0,1,16,17,18,19,20,21,22,23,24,25,26,27,28,29,30,31},{},{0,1,16,17,18,19,20,21,22,23,24,25,26,27,28,29,30,31,33,59,70,82,84,85,88,89,91,92,94,95,136,132,130},{0,1,2,3,4,5,6,7,8,9,10,11,12,13,14,15,16,48,49,50,51,52,53,60,62,64,65,66,69,134,133,131},{0,1,16,17,18,19,20,21,22,23,24,25,26,27,28,29,30,31,33,59,70,82,84,85,88,89,91,92,94,95,128},{0,1,2,3,4,5,6,7,8,9,10,11,12,13,14,15,16,48,49,50,51,52,53,60,62,64,65,66,69,129,133},{0,1,16,17,18,19,20,21,22,23,24,25,26,27,28,29,30,31,33,59,70,82,84,85,88,89,91,92,94,95,128},{0,1,2,3,4,5,6,7,8,9,10,11,12,13,14,15,16,48,49,50,51,52,53,60,62,64,65,66,69,129,131},{0,1,2,3,4,5,6,7,8,9,10,11,12,13,14,15,16,48,49,50,51,52,53,60,62,64,65,66,69,129},{0,1,2,3,4,5,6,7,8,9,10,11,12,13,14,15,16,48,49,50,51,52,53,60,62,64,65,66,69,137},{0,1,16,17,18,19,20,21,22,23,24,25,26,27,28,29,30,31,33,59,70,82,84,85,88,89,91,92,94,95,128},{0,1,2,3,4,5,6,7,8,9,10,11,12,13,14,15,16,48,49,50,51,52,53,60,62,64,65,66,69,135},{0,1,2,3,4,5,6,7,8,9,10,11,12,13,14,15,16,48,49,50,51,52,53,60,62,64,65,66,69},{},{0,1,16,17,18,19,20,21,22,23,24,25,26,27,28,29,30,31,33,59,70,82,84,85,88,89,91,92,94,95},{},{0,1,2,3,4,5,6,7,8,9,10,11,12,13,14,15,16,48,49,50,51,52,53,60,62,64,65,66,69,145,144,143},{0,1,2,3,4,5,6,7,8,9,10,11,12,13,14,15,16,48,49,50,51,52,53,60,62,64,65,66,69,142,144},{0,1,2,3,4,5,6,7,8,9,10,11,12,13,14,15,16,48,49,50,51,52,53,60,62,64,65,66,69,142,143},{0,1,2,3,4,5,6,7,8,9,10,11,12,13,14,15,16,48,49,50,51,52,53,60,62,64,65,66,69,142},{0,1,2,3,4,5,6,7,8,9,10,11,12,13,14,15,16,48,49,50,51,52,53,60,62,64,65,66,69,147},{0,1,2,3,4,5,6,7,8,9,10,11,12,13,14,15,16,48,49,50,51,52,53,60,62,64,65,66,69,146},{0,1,2,3,4,5,6,7,8,9,10,11,12,13,14,15,16,48,49,50,51,52,53,60,62,64,65,66,69},{},{0,1,16,17,18,19,20,21,22,23,24,25,26,27,28,29,30,31,35,59,70,82,84,85,88,89,91,92,94,95},{},{0,1,2,3,4,5,6,7,8,9,10,11,12,13,14,15,16,48,49,50,51,52,53,60,62,64,65,66,69,106},{0,1,2,3,4,5,6,7,8,9,10,11,12,13,14,15,16,48,49,50,51,52,53,60,62,64,65,66,69,106},{0,1,2,3,4,5,6,7,8,9,10,11,12,13,14,15,16,48,49,50,51,52,53,60,62,64,65,66,69,106},{0,1,2,3,4,5,6,7,8,9,10,11,12,13,14,15,16,48,49,50,51,52,53,60,62,64,65,66,69,106},{0,1,2,3,4,5,6,7,8,9,10,11,12,13,14,15,16,48,49,50,51,52,53,60,62,64,65,66,69,106},{},{0,1,16,17,18,19,20,21,22,23,24,25,26,27,28,29,30,31,34,59,70,82,84,85,88,89,91,92,94,95},{},{0,1,16,17,18,19,20,21,22,23,24,25,26,27,28,29,30,31,161},{0,1,16,17,18,19,20,21,22,23,24,25,26,27,28,29,30,31,160},{0,1,2,3,4,5,6,7,8,9,10,11,12,13,14,15,16,18,19,20,21,22,23,24,25,48,49,50,51,52,53,164,163},{0,1,2,3,4,5,6,7,8,9,10,11,12,13,14,15,16,19,20,21,22,23,24,25,48,49,50,51,52,53,162,164},{0,1,2,3,4,5,6,7,8,9,10,11,12,13,14,15,16,20,21,22,23,24,25,48,49,50,51,52,53,162,163},{0,1,16,17,18,19,20,21,22,23,24,25,26,27,28,29,30,31,166},{0,1,16,17,18,19,20,21,22,23,24,25,26,27,28,29,30,31,165},{0,1,16,17,18,19,20,21,22,23,24,25,26,27,28,29,30,31,174,173,172,171,170,169,168},{0,1,15,16,17,18,19,20,21,22,23,24,25,26,27,28,29,30,31,167,174,173,172,171,170,169},{0,1,9,15,16,17,18,19,20,21,22,23,24,25,26,27,28,29,30,31,167,168,174,173,172,171,170},{0,1,8,9,15,16,17,18,19,20,21,22,23,24,25,26,27,28,29,30,31,167,168,169,174,173,172,171},{0,1,7,8,9,15,16,17,18,19,20,21,22,23,24,25,26,27,28,29,30,31,167,168,169,170,174,173,172},{0,1,6,7,8,9,15,16,17,18,19,20,21,22,23,24,25,26,27,28,29,30,31,167,168,169,170,171,174,173},{0,1,5,6,7,8,9,15,16,17,18,19,20,21,22,23,24,25,26,27,28,29,30,31,167,168,169,170,171,172,174},{0,1,4,5,6,7,8,9,15,16,17,18,19,20,21,22,23,24,25,26,27,28,29,30,31,167,168,169,170,171,172,173},{0,1,16,17,18,19,20,21,22,23,24,25,26,27,28,29,30,31,176},{0,1,16,17,18,19,20,21,22,23,24,25,26,27,28,29,30,31,175,177},{0,1,16,17,18,19,20,21,22,23,24,25,26,27,28,29,30,31,36,176,178,183},{0,1,16,17,18,19,20,21,22,23,24,25,26,27,28,29,30,31,36,177,183},{},{0,1,2,3,4,5,6,7,8,9,10,11,12,13,14,15,16,48,49,50,51,52,53},{0,1,2,3,4,5,6,7,8,9,10,11,12,13,14,15,16,48,49,50,51,52,53},{},{0,1,16,17,18,19,20,21,22,23,24,25,26,27,28,29,30,31,36,177,178},{0,1,16,17,18,19,20,21,22,23,24,25,26,27,28,29,30,31},{0,1,16,17,18,19,20,21,22,23,24,25,26,27,28,29,30,31}];
weights=[14,8,1,16,1,8,17,19,6,1,12,12,17,17,10,14,4,2,7,9,4,4,1,13,3,18,6,3,2,1,15,12,5,15,5,2,1,19,2,6,19,10,15,16,7,2,7,8,19,13,13,4,13,13,13,16,8,16,18,6,16,10,15,1,6,19,2,3,18,19,8,15,9,19,8,13,18,12,1,17,2,13,1,15,3,11,8,8,7,3,10,3,12,5,19,14,2,1,16,16,17,2,8,6,17,16,15,15,5,15,13,6,5,10,1,5,1,8,9,7,7,18,6,19,1,5,10,18,3,4,11,19,5,19,2,18,12,17,14,16,9,4,2,14,13,19,15,14,4,4,1,11,18,7,7,15,8,16,13,10,19,5,9,1,1,11,19,12,8,10,5,13,13,6,4,6,5,18,16,6,18,14,16,14,17,3];
